************************************************************************
file with basedata            : j60_37.bas
initial value random generator: 1765619568
************************************************************************
projects                      :  1
jobs (incl. supersource/sink ):  62
horizon                       :  334
RESOURCES
  - renewable                 :  4   R
  - nonrenewable              :  0   N
  - doubly constrained        :  0   D
************************************************************************
PROJECT INFORMATION:
pronr.  #jobs rel.date duedate tardcost  MPM-Time
    1     60      0       85       33       85
************************************************************************
PRECEDENCE RELATIONS:
jobnr.    #modes  #successors   successors
   1        1          3           2   3   4
   2        1          3           8  33  44
   3        1          3           5   6  10
   4        1          3          18  39  51
   5        1          3           8  12  17
   6        1          3           7  28  30
   7        1          3           9  16  37
   8        1          3          19  20  40
   9        1          1          11
  10        1          3          13  38  49
  11        1          2          13  18
  12        1          3          24  29  52
  13        1          3          14  15  22
  14        1          2          32  39
  15        1          2          35  51
  16        1          3          23  53  56
  17        1          1          31
  18        1          3          20  26  31
  19        1          2          27  28
  20        1          1          21
  21        1          1          36
  22        1          2          25  41
  23        1          2          34  35
  24        1          1          54
  25        1          2          52  61
  26        1          2          52  57
  27        1          3          45  47  50
  28        1          1          50
  29        1          3          40  45  58
  30        1          1          34
  31        1          2          56  57
  32        1          2          47  50
  33        1          1          40
  34        1          1          39
  35        1          2          41  44
  36        1          3          43  46  49
  37        1          1          43
  38        1          3          47  48  54
  39        1          2          42  45
  40        1          1          41
  41        1          1          48
  42        1          2          44  48
  43        1          2          55  57
  44        1          2          46  55
  45        1          1          55
  46        1          1          54
  47        1          1          53
  48        1          2          59  60
  49        1          1          53
  50        1          1          51
  51        1          1          59
  52        1          2          56  60
  53        1          1          61
  54        1          1          58
  55        1          1          60
  56        1          1          59
  57        1          1          58
  58        1          1          61
  59        1          1          62
  60        1          1          62
  61        1          1          62
  62        1          0        
************************************************************************
REQUESTS/DURATIONS:
jobnr. mode duration  R 1  R 2  R 3  R 4
------------------------------------------------------------------------
  1      1     0       0    0    0    0
  2      1     2       0    2    0    1
  3      1     2       0    0    2    2
  4      1     5       0    0    8    0
  5      1     9       7   10    9    0
  6      1     6       2    9    0    0
  7      1     3      10    8    1    0
  8      1     6       0    5    0    0
  9      1     8       0    0    9    6
 10      1     9       0    2    8    6
 11      1     7       0    1    0    0
 12      1     8       0    2    0    2
 13      1     5       0    7   10    9
 14      1     6       3    0    0    3
 15      1     2       0    0    5    0
 16      1     6       4    1    0    7
 17      1     5       0    0    5    9
 18      1    10       7    0    0    4
 19      1     9       2    1    0    0
 20      1    10      10    0    0    0
 21      1     3       2    6    9    0
 22      1     2       0    0    3    1
 23      1     6       0    1    2    0
 24      1     6       0    0    8    0
 25      1     7      10    0    0    9
 26      1     3      10    1    8    2
 27      1     9      10    0    0    5
 28      1     9       2    9    8    6
 29      1     5       0    0    0    4
 30      1     8       7    0    1    0
 31      1     2       8    0    9    0
 32      1     7       0    0    0    7
 33      1     4       3    0    0    0
 34      1     5       1    6    0    7
 35      1     2       8    0    0    3
 36      1     9       9    0   10    0
 37      1     7       1    0    0    1
 38      1     2       1    2    4    0
 39      1     4       0    0    0    1
 40      1     5       3    0    0    0
 41      1     6       5    4   10    0
 42      1     4       2    0    2    5
 43      1     1       1    0    0    0
 44      1     1       0    0    8    9
 45      1     5       3    0    8    6
 46      1     7       1    0    0    3
 47      1     7      10    6    0    6
 48      1     8       6    8    0    0
 49      1     1       8    0    0    0
 50      1     6       9    6    0    0
 51      1     2       0    0   10    6
 52      1     6       0    1    0    0
 53      1     5       6    0    5    4
 54      1     1       0    0    8    0
 55      1     1       0    0    7    0
 56      1     9       7   10    4    0
 57      1     8       7    0    0   10
 58      1     8       1    0    0    1
 59      1     9       0    0    0    1
 60      1     6       0    7    0    0
 61      1    10       9   10    0    8
 62      1     0       0    0    0    0
************************************************************************
RESOURCEAVAILABILITIES:
  R 1  R 2  R 3  R 4
   17   15   13   14
************************************************************************
